N = 8;
H = 5;
T = 2;

avail = array3d(1..N, 1..H, 1..T, [0, 5, 3, 0, 6, 4, 7, 7, 7, 7, 2, 10, 4, 1, 5, 3, 7, 6, 6, 3, 2, 2, 10, 9, 2, 9, 10, 8, 4, 9, 0, 7, 3, 6, 2, 5, 2, 9, 10, 6, 2, 8, 6, 4, 1, 8, 4, 6, 9, 7, 9, 2, 1, 2, 2, 8, 0, 5, 9, 0, 5, 6, 9, 3, 3, 5, 4, 7, 10, 1, 2, 2, 7, 8, 1, 3, 7, 4, 1, 7]);

r = array2d(1..H, 1..T, [3, 0, 1, 1, 3, 2, 0, 2, 4, 0]);
